p cnf 596 1608
a 1 2 3 4 5 6 7 8 9 10 11 12 13 14 15 16 17 18 19 20 21 22 23 24 25 26 27 28 29 30 31 32 33 34 35 36 37 38 39 40 41 42 43 44 45 46 47 48 49 50 51 52 53 54 55 56 57 58 59 60 61 62 63 64 0
e 65 66 67 68 69 70 71 72 73 74 75 76 77 78 79 80 81 82 83 84 85 86 87 88 89 90 91 92 93 94 95 96 97 98 99 100 101 102 103 104 105 106 107 108 109 110 111 112 113 114 115 116 117 118 119 120 121 122 123 124 125 126 127 128 129 130 131 132 133 134 135 136 137 138 139 140 141 142 143 144 145 146 147 148 149 150 151 152 153 154 155 156 157 158 159 160 161 162 163 164 165 166 167 168 169 170 171 172 173 174 175 176 177 178 179 180 181 182 183 184 185 186 187 188 189 190 191 192 193 194 195 196 197 198 199 200 201 202 203 204 205 206 207 208 209 210 211 212 213 214 215 216 217 218 219 220 221 222 223 224 225 226 227 228 229 230 231 232 233 234 235 236 237 238 239 240 241 242 243 244 245 246 247 248 249 250 251 252 253 254 255 256 257 258 259 260 261 262 263 264 265 266 267 268 269 270 271 272 273 274 275 276 277 278 279 280 281 282 283 284 285 286 287 288 289 290 291 292 293 294 295 296 297 298 299 300 301 302 303 304 305 306 307 308 309 310 311 312 313 314 315 316 317 318 319 320 321 322 323 324 325 326 327 328 329 330 331 332 333 334 335 336 337 338 339 340 341 342 343 344 345 346 347 348 349 350 351 352 353 354 355 356 357 358 359 360 361 362 363 364 365 366 367 368 369 370 371 372 373 374 375 376 377 378 379 380 381 382 383 384 385 386 387 388 389 390 391 392 393 394 395 396 397 398 399 400 401 402 403 404 405 406 407 408 409 410 411 412 413 414 415 416 417 418 419 420 421 422 423 424 425 426 427 428 429 430 431 432 433 434 435 436 437 438 439 440 441 442 443 444 445 446 447 448 449 450 451 452 453 454 455 456 457 458 459 460 461 462 463 464 465 466 467 468 469 470 471 472 473 474 475 476 477 478 479 480 481 482 483 484 485 486 487 488 489 490 491 492 493 494 495 496 497 498 499 500 501 502 503 504 505 506 507 508 509 510 511 512 513 514 515 516 517 518 519 520 521 522 523 524 525 526 527 528 529 530 531 532 533 534 535 536 537 538 539 540 541 542 543 544 545 546 547 548 549 550 551 552 553 554 555 556 557 558 559 560 561 562 563 564 565 566 567 568 569 570 571 572 573 574 575 576 577 578 579 580 581 582 583 584 585 586 587 588 589 590 591 592 593 594 0
81 65 0
-81 -65 0
82 66 -81 0
-82 81 0
-82 -66 0
83 -82 0
-83 82 0
84 67 -83 0
-84 83 0
-84 -67 0
85 -84 0
-85 84 0
86 68 -85 0
-86 85 0
-86 -68 0
87 -86 0
-87 86 0
88 69 -87 0
-88 87 0
-88 -69 0
89 -88 0
-89 88 0
90 70 -89 0
-90 89 0
-90 -70 0
91 -90 0
-91 90 0
92 71 -91 0
-92 91 0
-92 -71 0
93 -92 0
-93 92 0
94 72 -93 0
-94 93 0
-94 -72 0
95 -94 0
-95 94 0
96 73 -95 0
-96 95 0
-96 -73 0
97 -96 0
-97 96 0
98 74 -97 0
-98 97 0
-98 -74 0
99 -98 0
-99 98 0
100 75 -99 0
-100 99 0
-100 -75 0
101 -100 0
-101 100 0
102 76 -101 0
-102 101 0
-102 -76 0
103 -102 0
-103 102 0
104 77 -103 0
-104 103 0
-104 -77 0
105 -104 0
-105 104 0
106 78 -105 0
-106 105 0
-106 -78 0
107 -106 0
-107 106 0
108 79 -107 0
-108 107 0
-108 -79 0
109 -108 0
-109 108 0
110 80 -109 0
-110 109 0
-110 -80 0
111 -110 0
-111 110 0
112 -80 -111 0
112 80 111 0
-112 -80 111 0
-112 80 -111 0
114 0
-114 -112 -113 0
115 -65 0
-115 65 0
116 -66 -115 0
116 66 115 0
-116 -66 115 0
-116 66 -115 0
117 -66 -115 0
-117 115 0
-117 66 0
118 -115 0
118 -117 0
118 -66 0
-118 66 115 117 0
119 -67 -118 0
119 67 118 0
-119 -67 118 0
-119 67 -118 0
120 -67 -118 0
-120 118 0
-120 67 0
121 -118 0
121 -120 0
121 -67 0
-121 67 118 120 0
122 -68 -121 0
122 68 121 0
-122 -68 121 0
-122 68 -121 0
123 -68 -121 0
-123 121 0
-123 68 0
124 -121 0
124 -123 0
124 -68 0
-124 68 121 123 0
125 -69 -124 0
125 69 124 0
-125 -69 124 0
-125 69 -124 0
126 -69 -124 0
-126 124 0
-126 69 0
127 -124 0
127 -126 0
127 -69 0
-127 69 124 126 0
128 -70 -127 0
128 70 127 0
-128 -70 127 0
-128 70 -127 0
129 -70 -127 0
-129 127 0
-129 70 0
130 -127 0
130 -129 0
130 -70 0
-130 70 127 129 0
131 -71 -130 0
131 71 130 0
-131 -71 130 0
-131 71 -130 0
132 -71 -130 0
-132 130 0
-132 71 0
133 -130 0
133 -132 0
133 -71 0
-133 71 130 132 0
134 -72 -133 0
134 72 133 0
-134 -72 133 0
-134 72 -133 0
135 -72 -133 0
-135 133 0
-135 72 0
136 -133 0
136 -135 0
136 -72 0
-136 72 133 135 0
137 -73 -136 0
137 73 136 0
-137 -73 136 0
-137 73 -136 0
138 -73 -136 0
-138 136 0
-138 73 0
139 -136 0
139 -138 0
139 -73 0
-139 73 136 138 0
140 -74 -139 0
140 74 139 0
-140 -74 139 0
-140 74 -139 0
141 -74 -139 0
-141 139 0
-141 74 0
142 -139 0
142 -141 0
142 -74 0
-142 74 139 141 0
143 -75 -142 0
143 75 142 0
-143 -75 142 0
-143 75 -142 0
144 -75 -142 0
-144 142 0
-144 75 0
145 -142 0
145 -144 0
145 -75 0
-145 75 142 144 0
146 -76 -145 0
146 76 145 0
-146 -76 145 0
-146 76 -145 0
147 -76 -145 0
-147 145 0
-147 76 0
148 -145 0
148 -147 0
148 -76 0
-148 76 145 147 0
149 -77 -148 0
149 77 148 0
-149 -77 148 0
-149 77 -148 0
150 -77 -148 0
-150 148 0
-150 77 0
151 -148 0
151 -150 0
151 -77 0
-151 77 148 150 0
152 -78 -151 0
152 78 151 0
-152 -78 151 0
-152 78 -151 0
153 -78 -151 0
-153 151 0
-153 78 0
154 -151 0
154 -153 0
154 -78 0
-154 78 151 153 0
155 -79 -154 0
155 79 154 0
-155 -79 154 0
-155 79 -154 0
156 -79 -154 0
-156 154 0
-156 79 0
157 -154 0
157 -156 0
157 -79 0
-157 79 154 156 0
158 -80 -157 0
158 80 157 0
-158 -80 157 0
-158 80 -157 0
159 -80 -157 0
-159 157 0
-159 80 0
160 -157 0
160 -159 0
160 -80 0
-160 80 157 159 0
161 -65 0
-161 65 0
162 116 -161 0
-162 161 0
-162 -116 0
163 -162 0
-163 162 0
164 119 -163 0
-164 163 0
-164 -119 0
165 -164 0
-165 164 0
166 122 -165 0
-166 165 0
-166 -122 0
167 -166 0
-167 166 0
168 125 -167 0
-168 167 0
-168 -125 0
169 -168 0
-169 168 0
170 128 -169 0
-170 169 0
-170 -128 0
171 -170 0
-171 170 0
172 131 -171 0
-172 171 0
-172 -131 0
173 -172 0
-173 172 0
174 134 -173 0
-174 173 0
-174 -134 0
175 -174 0
-175 174 0
176 137 -175 0
-176 175 0
-176 -137 0
177 -176 0
-177 176 0
178 140 -177 0
-178 177 0
-178 -140 0
179 -178 0
-179 178 0
180 143 -179 0
-180 179 0
-180 -143 0
181 -180 0
-181 180 0
182 146 -181 0
-182 181 0
-182 -146 0
183 -182 0
-183 182 0
184 149 -183 0
-184 183 0
-184 -149 0
185 -184 0
-185 184 0
186 152 -185 0
-186 185 0
-186 -152 0
187 -186 0
-187 186 0
188 155 -187 0
-188 187 0
-188 -155 0
189 -188 0
-189 188 0
190 158 -189 0
-190 189 0
-190 -158 0
191 -190 0
-191 190 0
192 -158 -191 0
192 158 191 0
-192 -158 191 0
-192 158 -191 0
194 0
-194 -192 -193 0
195 65 0
-195 -65 0
196 -116 -195 0
196 116 195 0
-196 -116 195 0
-196 116 -195 0
197 -116 -195 0
-197 195 0
-197 116 0
198 -195 0
198 -197 0
198 -116 0
-198 116 195 197 0
199 -119 -198 0
199 119 198 0
-199 -119 198 0
-199 119 -198 0
200 -119 -198 0
-200 198 0
-200 119 0
201 -198 0
201 -200 0
201 -119 0
-201 119 198 200 0
202 -122 -201 0
202 122 201 0
-202 -122 201 0
-202 122 -201 0
203 -122 -201 0
-203 201 0
-203 122 0
204 -201 0
204 -203 0
204 -122 0
-204 122 201 203 0
205 -125 -204 0
205 125 204 0
-205 -125 204 0
-205 125 -204 0
206 -125 -204 0
-206 204 0
-206 125 0
207 -204 0
207 -206 0
207 -125 0
-207 125 204 206 0
208 -128 -207 0
208 128 207 0
-208 -128 207 0
-208 128 -207 0
209 -128 -207 0
-209 207 0
-209 128 0
210 -207 0
210 -209 0
210 -128 0
-210 128 207 209 0
211 -131 -210 0
211 131 210 0
-211 -131 210 0
-211 131 -210 0
212 -131 -210 0
-212 210 0
-212 131 0
213 -210 0
213 -212 0
213 -131 0
-213 131 210 212 0
214 -134 -213 0
214 134 213 0
-214 -134 213 0
-214 134 -213 0
215 -134 -213 0
-215 213 0
-215 134 0
216 -213 0
216 -215 0
216 -134 0
-216 134 213 215 0
217 -137 -216 0
217 137 216 0
-217 -137 216 0
-217 137 -216 0
218 -137 -216 0
-218 216 0
-218 137 0
219 -216 0
219 -218 0
219 -137 0
-219 137 216 218 0
220 -140 -219 0
220 140 219 0
-220 -140 219 0
-220 140 -219 0
221 -140 -219 0
-221 219 0
-221 140 0
222 -219 0
222 -221 0
222 -140 0
-222 140 219 221 0
223 -143 -222 0
223 143 222 0
-223 -143 222 0
-223 143 -222 0
224 -143 -222 0
-224 222 0
-224 143 0
225 -222 0
225 -224 0
225 -143 0
-225 143 222 224 0
226 -146 -225 0
226 146 225 0
-226 -146 225 0
-226 146 -225 0
227 -146 -225 0
-227 225 0
-227 146 0
228 -225 0
228 -227 0
228 -146 0
-228 146 225 227 0
229 -149 -228 0
229 149 228 0
-229 -149 228 0
-229 149 -228 0
230 -149 -228 0
-230 228 0
-230 149 0
231 -228 0
231 -230 0
231 -149 0
-231 149 228 230 0
232 -152 -231 0
232 152 231 0
-232 -152 231 0
-232 152 -231 0
233 -152 -231 0
-233 231 0
-233 152 0
234 -231 0
234 -233 0
234 -152 0
-234 152 231 233 0
235 -155 -234 0
235 155 234 0
-235 -155 234 0
-235 155 -234 0
236 -155 -234 0
-236 234 0
-236 155 0
237 -234 0
237 -236 0
237 -155 0
-237 155 234 236 0
238 -158 -237 0
238 158 237 0
-238 -158 237 0
-238 158 -237 0
239 -158 -237 0
-239 237 0
-239 158 0
240 -237 0
240 -239 0
240 -158 0
-240 158 237 239 0
241 -238 0
241 -235 0
241 -232 0
241 -229 0
241 -226 0
241 -223 0
241 -220 0
241 -217 0
241 -214 0
241 -211 0
241 -208 0
241 -205 0
241 -202 0
241 -199 0
241 -196 0
241 -65 0
-241 65 196 199 202 205 208 211 214 217 220 223 226 229 232 235 238 0
242 241 0
242 -238 0
-242 238 -241 0
244 0
-244 242 -243 0
245 1 -65 0
245 -1 65 0
-245 1 65 0
-245 -1 -65 0
246 2 -66 0
246 -2 66 0
-246 2 66 0
-246 -2 -66 0
247 3 -67 0
247 -3 67 0
-247 3 67 0
-247 -3 -67 0
248 4 -68 0
248 -4 68 0
-248 4 68 0
-248 -4 -68 0
249 5 -69 0
249 -5 69 0
-249 5 69 0
-249 -5 -69 0
250 6 -70 0
250 -6 70 0
-250 6 70 0
-250 -6 -70 0
251 7 -71 0
251 -7 71 0
-251 7 71 0
-251 -7 -71 0
252 8 -72 0
252 -8 72 0
-252 8 72 0
-252 -8 -72 0
253 9 -73 0
253 -9 73 0
-253 9 73 0
-253 -9 -73 0
254 10 -74 0
254 -10 74 0
-254 10 74 0
-254 -10 -74 0
255 11 -75 0
255 -11 75 0
-255 11 75 0
-255 -11 -75 0
256 12 -76 0
256 -12 76 0
-256 12 76 0
-256 -12 -76 0
257 13 -77 0
257 -13 77 0
-257 13 77 0
-257 -13 -77 0
258 14 -78 0
258 -14 78 0
-258 14 78 0
-258 -14 -78 0
259 15 -79 0
259 -15 79 0
-259 15 79 0
-259 -15 -79 0
260 16 -80 0
260 -16 80 0
-260 16 80 0
-260 -16 -80 0
261 245 246 247 248 249 250 251 252 253 254 255 256 257 258 259 260 0
-261 -260 0
-261 -259 0
-261 -258 0
-261 -257 0
-261 -256 0
-261 -255 0
-261 -254 0
-261 -253 0
-261 -252 0
-261 -251 0
-261 -250 0
-261 -249 0
-261 -248 0
-261 -247 0
-261 -246 0
-261 -245 0
262 33 65 0
262 -33 -65 0
-262 33 -65 0
-262 -33 65 0
263 34 -116 0
263 -34 116 0
-263 34 116 0
-263 -34 -116 0
264 35 -119 0
264 -35 119 0
-264 35 119 0
-264 -35 -119 0
265 36 -122 0
265 -36 122 0
-265 36 122 0
-265 -36 -122 0
266 37 -125 0
266 -37 125 0
-266 37 125 0
-266 -37 -125 0
267 38 -128 0
267 -38 128 0
-267 38 128 0
-267 -38 -128 0
268 39 -131 0
268 -39 131 0
-268 39 131 0
-268 -39 -131 0
269 40 -134 0
269 -40 134 0
-269 40 134 0
-269 -40 -134 0
270 41 -137 0
270 -41 137 0
-270 41 137 0
-270 -41 -137 0
271 42 -140 0
271 -42 140 0
-271 42 140 0
-271 -42 -140 0
272 43 -143 0
272 -43 143 0
-272 43 143 0
-272 -43 -143 0
273 44 -146 0
273 -44 146 0
-273 44 146 0
-273 -44 -146 0
274 45 -149 0
274 -45 149 0
-274 45 149 0
-274 -45 -149 0
275 46 -152 0
275 -46 152 0
-275 46 152 0
-275 -46 -152 0
276 47 -155 0
276 -47 155 0
-276 47 155 0
-276 -47 -155 0
277 48 -158 0
277 -48 158 0
-277 48 158 0
-277 -48 -158 0
278 262 263 264 265 266 267 268 269 270 271 272 273 274 275 276 277 0
-278 -277 0
-278 -276 0
-278 -275 0
-278 -274 0
-278 -273 0
-278 -272 0
-278 -271 0
-278 -270 0
-278 -269 0
-278 -268 0
-278 -267 0
-278 -266 0
-278 -265 0
-278 -264 0
-278 -263 0
-278 -262 0
295 17 -279 0
295 -17 279 0
-295 17 279 0
-295 -17 -279 0
296 18 -280 0
296 -18 280 0
-296 18 280 0
-296 -18 -280 0
297 19 -281 0
297 -19 281 0
-297 19 281 0
-297 -19 -281 0
298 20 -282 0
298 -20 282 0
-298 20 282 0
-298 -20 -282 0
299 21 -283 0
299 -21 283 0
-299 21 283 0
-299 -21 -283 0
300 22 -284 0
300 -22 284 0
-300 22 284 0
-300 -22 -284 0
301 23 -285 0
301 -23 285 0
-301 23 285 0
-301 -23 -285 0
302 24 -286 0
302 -24 286 0
-302 24 286 0
-302 -24 -286 0
303 25 -287 0
303 -25 287 0
-303 25 287 0
-303 -25 -287 0
304 26 -288 0
304 -26 288 0
-304 26 288 0
-304 -26 -288 0
305 27 -289 0
305 -27 289 0
-305 27 289 0
-305 -27 -289 0
306 28 -290 0
306 -28 290 0
-306 28 290 0
-306 -28 -290 0
307 29 -291 0
307 -29 291 0
-307 29 291 0
-307 -29 -291 0
308 30 -292 0
308 -30 292 0
-308 30 292 0
-308 -30 -292 0
309 31 -293 0
309 -31 293 0
-309 31 293 0
-309 -31 -293 0
310 32 -294 0
310 -32 294 0
-310 32 294 0
-310 -32 -294 0
311 295 296 297 298 299 300 301 302 303 304 305 306 307 308 309 310 0
-311 -310 0
-311 -309 0
-311 -308 0
-311 -307 0
-311 -306 0
-311 -305 0
-311 -304 0
-311 -303 0
-311 -302 0
-311 -301 0
-311 -300 0
-311 -299 0
-311 -298 0
-311 -297 0
-311 -296 0
-311 -295 0
312 49 -65 0
312 -49 65 0
-312 49 65 0
-312 -49 -65 0
313 50 -196 0
313 -50 196 0
-313 50 196 0
-313 -50 -196 0
314 51 -199 0
314 -51 199 0
-314 51 199 0
-314 -51 -199 0
315 52 -202 0
315 -52 202 0
-315 52 202 0
-315 -52 -202 0
316 53 -205 0
316 -53 205 0
-316 53 205 0
-316 -53 -205 0
317 54 -208 0
317 -54 208 0
-317 54 208 0
-317 -54 -208 0
318 55 -211 0
318 -55 211 0
-318 55 211 0
-318 -55 -211 0
319 56 -214 0
319 -56 214 0
-319 56 214 0
-319 -56 -214 0
320 57 -217 0
320 -57 217 0
-320 57 217 0
-320 -57 -217 0
321 58 -220 0
321 -58 220 0
-321 58 220 0
-321 -58 -220 0
322 59 -223 0
322 -59 223 0
-322 59 223 0
-322 -59 -223 0
323 60 -226 0
323 -60 226 0
-323 60 226 0
-323 -60 -226 0
324 61 -229 0
324 -61 229 0
-324 61 229 0
-324 -61 -229 0
325 62 -232 0
325 -62 232 0
-325 62 232 0
-325 -62 -232 0
326 63 -235 0
326 -63 235 0
-326 63 235 0
-326 -63 -235 0
327 64 -238 0
327 -64 238 0
-327 64 238 0
-327 -64 -238 0
328 312 313 314 315 316 317 318 319 320 321 322 323 324 325 326 327 0
-328 -327 0
-328 -326 0
-328 -325 0
-328 -324 0
-328 -323 0
-328 -322 0
-328 -321 0
-328 -320 0
-328 -319 0
-328 -318 0
-328 -317 0
-328 -316 0
-328 -315 0
-328 -314 0
-328 -313 0
-328 -312 0
329 -112 -192 -242 -261 -278 -311 -328 0
-329 328 0
-329 311 0
-329 278 0
-329 261 0
-329 242 0
-329 192 0
-329 112 0
362 330 -346 0
-362 -330 0
-362 346 0
363 330 0
363 -346 0
363 -362 0
-363 -330 346 362 0
364 331 -347 0
-364 -331 0
-364 347 0
365 -347 -363 0
-365 363 0
-365 347 0
366 331 -363 0
-366 363 0
-366 -331 0
367 -366 0
367 -365 0
367 -364 0
-367 364 365 366 0
368 332 -348 0
-368 -332 0
-368 348 0
369 -348 -367 0
-369 367 0
-369 348 0
370 332 -367 0
-370 367 0
-370 -332 0
371 -370 0
371 -369 0
371 -368 0
-371 368 369 370 0
372 333 -349 0
-372 -333 0
-372 349 0
373 -349 -371 0
-373 371 0
-373 349 0
374 333 -371 0
-374 371 0
-374 -333 0
375 -374 0
375 -373 0
375 -372 0
-375 372 373 374 0
376 334 -350 0
-376 -334 0
-376 350 0
377 -350 -375 0
-377 375 0
-377 350 0
378 334 -375 0
-378 375 0
-378 -334 0
379 -378 0
379 -377 0
379 -376 0
-379 376 377 378 0
380 335 -351 0
-380 -335 0
-380 351 0
381 -351 -379 0
-381 379 0
-381 351 0
382 335 -379 0
-382 379 0
-382 -335 0
383 -382 0
383 -381 0
383 -380 0
-383 380 381 382 0
384 336 -352 0
-384 -336 0
-384 352 0
385 -352 -383 0
-385 383 0
-385 352 0
386 336 -383 0
-386 383 0
-386 -336 0
387 -386 0
387 -385 0
387 -384 0
-387 384 385 386 0
388 337 -353 0
-388 -337 0
-388 353 0
389 -353 -387 0
-389 387 0
-389 353 0
390 337 -387 0
-390 387 0
-390 -337 0
391 -390 0
391 -389 0
391 -388 0
-391 388 389 390 0
392 338 -354 0
-392 -338 0
-392 354 0
393 -354 -391 0
-393 391 0
-393 354 0
394 338 -391 0
-394 391 0
-394 -338 0
395 -394 0
395 -393 0
395 -392 0
-395 392 393 394 0
396 339 -355 0
-396 -339 0
-396 355 0
397 -355 -395 0
-397 395 0
-397 355 0
398 339 -395 0
-398 395 0
-398 -339 0
399 -398 0
399 -397 0
399 -396 0
-399 396 397 398 0
400 340 -356 0
-400 -340 0
-400 356 0
401 -356 -399 0
-401 399 0
-401 356 0
402 340 -399 0
-402 399 0
-402 -340 0
403 -402 0
403 -401 0
403 -400 0
-403 400 401 402 0
404 341 -357 0
-404 -341 0
-404 357 0
405 -357 -403 0
-405 403 0
-405 357 0
406 341 -403 0
-406 403 0
-406 -341 0
407 -406 0
407 -405 0
407 -404 0
-407 404 405 406 0
408 342 -358 0
-408 -342 0
-408 358 0
409 -358 -407 0
-409 407 0
-409 358 0
410 342 -407 0
-410 407 0
-410 -342 0
411 -410 0
411 -409 0
411 -408 0
-411 408 409 410 0
412 343 -359 0
-412 -343 0
-412 359 0
413 -359 -411 0
-413 411 0
-413 359 0
414 343 -411 0
-414 411 0
-414 -343 0
415 -414 0
415 -413 0
415 -412 0
-415 412 413 414 0
416 344 -360 0
-416 -344 0
-416 360 0
417 -360 -415 0
-417 415 0
-417 360 0
418 344 -415 0
-418 415 0
-418 -344 0
419 -418 0
419 -417 0
419 -416 0
-419 416 417 418 0
420 345 -361 0
-420 -345 0
-420 361 0
421 -361 -419 0
-421 419 0
-421 361 0
422 345 -419 0
-422 419 0
-422 -345 0
423 -422 0
423 -421 0
423 -420 0
-423 420 421 422 0
424 -345 361 0
424 345 -361 0
-424 345 361 0
-424 -345 -361 0
425 -423 -424 0
425 423 424 0
-425 423 -424 0
-425 -423 424 0
427 0
-427 -425 -426 0
460 428 -444 0
-460 -428 0
-460 444 0
461 428 0
461 -444 0
461 -460 0
-461 -428 444 460 0
462 429 -445 0
-462 -429 0
-462 445 0
463 -445 -461 0
-463 461 0
-463 445 0
464 429 -461 0
-464 461 0
-464 -429 0
465 -464 0
465 -463 0
465 -462 0
-465 462 463 464 0
466 430 -446 0
-466 -430 0
-466 446 0
467 -446 -465 0
-467 465 0
-467 446 0
468 430 -465 0
-468 465 0
-468 -430 0
469 -468 0
469 -467 0
469 -466 0
-469 466 467 468 0
470 431 -447 0
-470 -431 0
-470 447 0
471 -447 -469 0
-471 469 0
-471 447 0
472 431 -469 0
-472 469 0
-472 -431 0
473 -472 0
473 -471 0
473 -470 0
-473 470 471 472 0
474 432 -448 0
-474 -432 0
-474 448 0
475 -448 -473 0
-475 473 0
-475 448 0
476 432 -473 0
-476 473 0
-476 -432 0
477 -476 0
477 -475 0
477 -474 0
-477 474 475 476 0
478 433 -449 0
-478 -433 0
-478 449 0
479 -449 -477 0
-479 477 0
-479 449 0
480 433 -477 0
-480 477 0
-480 -433 0
481 -480 0
481 -479 0
481 -478 0
-481 478 479 480 0
482 434 -450 0
-482 -434 0
-482 450 0
483 -450 -481 0
-483 481 0
-483 450 0
484 434 -481 0
-484 481 0
-484 -434 0
485 -484 0
485 -483 0
485 -482 0
-485 482 483 484 0
486 435 -451 0
-486 -435 0
-486 451 0
487 -451 -485 0
-487 485 0
-487 451 0
488 435 -485 0
-488 485 0
-488 -435 0
489 -488 0
489 -487 0
489 -486 0
-489 486 487 488 0
490 436 -452 0
-490 -436 0
-490 452 0
491 -452 -489 0
-491 489 0
-491 452 0
492 436 -489 0
-492 489 0
-492 -436 0
493 -492 0
493 -491 0
493 -490 0
-493 490 491 492 0
494 437 -453 0
-494 -437 0
-494 453 0
495 -453 -493 0
-495 493 0
-495 453 0
496 437 -493 0
-496 493 0
-496 -437 0
497 -496 0
497 -495 0
497 -494 0
-497 494 495 496 0
498 438 -454 0
-498 -438 0
-498 454 0
499 -454 -497 0
-499 497 0
-499 454 0
500 438 -497 0
-500 497 0
-500 -438 0
501 -500 0
501 -499 0
501 -498 0
-501 498 499 500 0
502 439 -455 0
-502 -439 0
-502 455 0
503 -455 -501 0
-503 501 0
-503 455 0
504 439 -501 0
-504 501 0
-504 -439 0
505 -504 0
505 -503 0
505 -502 0
-505 502 503 504 0
506 440 -456 0
-506 -440 0
-506 456 0
507 -456 -505 0
-507 505 0
-507 456 0
508 440 -505 0
-508 505 0
-508 -440 0
509 -508 0
509 -507 0
509 -506 0
-509 506 507 508 0
510 441 -457 0
-510 -441 0
-510 457 0
511 -457 -509 0
-511 509 0
-511 457 0
512 441 -509 0
-512 509 0
-512 -441 0
513 -512 0
513 -511 0
513 -510 0
-513 510 511 512 0
514 442 -458 0
-514 -442 0
-514 458 0
515 -458 -513 0
-515 513 0
-515 458 0
516 442 -513 0
-516 513 0
-516 -442 0
517 -516 0
517 -515 0
517 -514 0
-517 514 515 516 0
518 443 -459 0
-518 -443 0
-518 459 0
519 -459 -517 0
-519 517 0
-519 459 0
520 443 -517 0
-520 517 0
-520 -443 0
521 -520 0
521 -519 0
521 -518 0
-521 518 519 520 0
522 -443 459 0
522 443 -459 0
-522 443 459 0
-522 -443 -459 0
523 -521 -522 0
523 521 522 0
-523 521 -522 0
-523 -521 522 0
525 0
-525 -523 -524 0
526 -329 0
526 -425 -523 0
-526 523 0
-526 425 0
527 1 -33 0
527 -1 33 0
-527 1 33 0
-527 -1 -33 0
528 2 -34 0
528 -2 34 0
-528 2 34 0
-528 -2 -34 0
529 3 -35 0
529 -3 35 0
-529 3 35 0
-529 -3 -35 0
530 4 -36 0
530 -4 36 0
-530 4 36 0
-530 -4 -36 0
531 5 -37 0
531 -5 37 0
-531 5 37 0
-531 -5 -37 0
532 6 -38 0
532 -6 38 0
-532 6 38 0
-532 -6 -38 0
533 7 -39 0
533 -7 39 0
-533 7 39 0
-533 -7 -39 0
534 8 -40 0
534 -8 40 0
-534 8 40 0
-534 -8 -40 0
535 9 -41 0
535 -9 41 0
-535 9 41 0
-535 -9 -41 0
536 10 -42 0
536 -10 42 0
-536 10 42 0
-536 -10 -42 0
537 11 -43 0
537 -11 43 0
-537 11 43 0
-537 -11 -43 0
538 12 -44 0
538 -12 44 0
-538 12 44 0
-538 -12 -44 0
539 13 -45 0
539 -13 45 0
-539 13 45 0
-539 -13 -45 0
540 14 -46 0
540 -14 46 0
-540 14 46 0
-540 -14 -46 0
541 15 -47 0
541 -15 47 0
-541 15 47 0
-541 -15 -47 0
542 16 -48 0
542 -16 48 0
-542 16 48 0
-542 -16 -48 0
543 527 528 529 530 531 532 533 534 535 536 537 538 539 540 541 542 0
-543 -542 0
-543 -541 0
-543 -540 0
-543 -539 0
-543 -538 0
-543 -537 0
-543 -536 0
-543 -535 0
-543 -534 0
-543 -533 0
-543 -532 0
-543 -531 0
-543 -530 0
-543 -529 0
-543 -528 0
-543 -527 0
544 330 -346 0
544 -330 346 0
-544 330 346 0
-544 -330 -346 0
545 331 -347 0
545 -331 347 0
-545 331 347 0
-545 -331 -347 0
546 332 -348 0
546 -332 348 0
-546 332 348 0
-546 -332 -348 0
547 333 -349 0
547 -333 349 0
-547 333 349 0
-547 -333 -349 0
548 334 -350 0
548 -334 350 0
-548 334 350 0
-548 -334 -350 0
549 335 -351 0
549 -335 351 0
-549 335 351 0
-549 -335 -351 0
550 336 -352 0
550 -336 352 0
-550 336 352 0
-550 -336 -352 0
551 337 -353 0
551 -337 353 0
-551 337 353 0
-551 -337 -353 0
552 338 -354 0
552 -338 354 0
-552 338 354 0
-552 -338 -354 0
553 339 -355 0
553 -339 355 0
-553 339 355 0
-553 -339 -355 0
554 340 -356 0
554 -340 356 0
-554 340 356 0
-554 -340 -356 0
555 341 -357 0
555 -341 357 0
-555 341 357 0
-555 -341 -357 0
556 342 -358 0
556 -342 358 0
-556 342 358 0
-556 -342 -358 0
557 343 -359 0
557 -343 359 0
-557 343 359 0
-557 -343 -359 0
558 344 -360 0
558 -344 360 0
-558 344 360 0
-558 -344 -360 0
559 345 -361 0
559 -345 361 0
-559 345 361 0
-559 -345 -361 0
560 -543 0
560 544 545 546 547 548 549 550 551 552 553 554 555 556 557 558 559 0
-560 -559 0
-560 -558 0
-560 -557 0
-560 -556 0
-560 -555 0
-560 -554 0
-560 -553 0
-560 -552 0
-560 -551 0
-560 -550 0
-560 -549 0
-560 -548 0
-560 -547 0
-560 -546 0
-560 -545 0
-560 -544 0
561 17 -49 0
561 -17 49 0
-561 17 49 0
-561 -17 -49 0
562 18 -50 0
562 -18 50 0
-562 18 50 0
-562 -18 -50 0
563 19 -51 0
563 -19 51 0
-563 19 51 0
-563 -19 -51 0
564 20 -52 0
564 -20 52 0
-564 20 52 0
-564 -20 -52 0
565 21 -53 0
565 -21 53 0
-565 21 53 0
-565 -21 -53 0
566 22 -54 0
566 -22 54 0
-566 22 54 0
-566 -22 -54 0
567 23 -55 0
567 -23 55 0
-567 23 55 0
-567 -23 -55 0
568 24 -56 0
568 -24 56 0
-568 24 56 0
-568 -24 -56 0
569 25 -57 0
569 -25 57 0
-569 25 57 0
-569 -25 -57 0
570 26 -58 0
570 -26 58 0
-570 26 58 0
-570 -26 -58 0
571 27 -59 0
571 -27 59 0
-571 27 59 0
-571 -27 -59 0
572 28 -60 0
572 -28 60 0
-572 28 60 0
-572 -28 -60 0
573 29 -61 0
573 -29 61 0
-573 29 61 0
-573 -29 -61 0
574 30 -62 0
574 -30 62 0
-574 30 62 0
-574 -30 -62 0
575 31 -63 0
575 -31 63 0
-575 31 63 0
-575 -31 -63 0
576 32 -64 0
576 -32 64 0
-576 32 64 0
-576 -32 -64 0
577 561 562 563 564 565 566 567 568 569 570 571 572 573 574 575 576 0
-577 -576 0
-577 -575 0
-577 -574 0
-577 -573 0
-577 -572 0
-577 -571 0
-577 -570 0
-577 -569 0
-577 -568 0
-577 -567 0
-577 -566 0
-577 -565 0
-577 -564 0
-577 -563 0
-577 -562 0
-577 -561 0
578 428 -444 0
578 -428 444 0
-578 428 444 0
-578 -428 -444 0
579 429 -445 0
579 -429 445 0
-579 429 445 0
-579 -429 -445 0
580 430 -446 0
580 -430 446 0
-580 430 446 0
-580 -430 -446 0
581 431 -447 0
581 -431 447 0
-581 431 447 0
-581 -431 -447 0
582 432 -448 0
582 -432 448 0
-582 432 448 0
-582 -432 -448 0
583 433 -449 0
583 -433 449 0
-583 433 449 0
-583 -433 -449 0
584 434 -450 0
584 -434 450 0
-584 434 450 0
-584 -434 -450 0
585 435 -451 0
585 -435 451 0
-585 435 451 0
-585 -435 -451 0
586 436 -452 0
586 -436 452 0
-586 436 452 0
-586 -436 -452 0
587 437 -453 0
587 -437 453 0
-587 437 453 0
-587 -437 -453 0
588 438 -454 0
588 -438 454 0
-588 438 454 0
-588 -438 -454 0
589 439 -455 0
589 -439 455 0
-589 439 455 0
-589 -439 -455 0
590 440 -456 0
590 -440 456 0
-590 440 456 0
-590 -440 -456 0
591 441 -457 0
591 -441 457 0
-591 441 457 0
-591 -441 -457 0
592 442 -458 0
592 -442 458 0
-592 442 458 0
-592 -442 -458 0
593 443 -459 0
593 -443 459 0
-593 443 459 0
-593 -443 -459 0
594 -577 0
594 578 579 580 581 582 583 584 585 586 587 588 589 590 591 592 593 0
-594 -593 0
-594 -592 0
-594 -591 0
-594 -590 0
-594 -589 0
-594 -588 0
-594 -587 0
-594 -586 0
-594 -585 0
-594 -584 0
-594 -583 0
-594 -582 0
-594 -581 0
-594 -580 0
-594 -579 0
-594 -578 0
